unsat
(:added-eqs                   1091286
 :arith-eq-adapter            3036
 :arith-bound-propagations-lp 51053
 :arith-conflicts             257
 :arith-diseq                 54961
 :arith-fixed-eqs             72900
 :arith-lower                 45768
 :arith-make-feasible         24984
 :arith-max-columns           1212
 :arith-max-rows              667
 :arith-offset-eqs            13137
 :arith-upper                 86670
 :binary-propagations         5449379
 :conflicts                   10512
 :decisions                   915520
 :del-clause                  7668
 :elim-unconstrained          4
 :max-memory                  52.79
 :memory                      35.92
 :minimized-lits              99142
 :mk-bool-var                 20262
 :mk-clause                   20434
 :mk-clause-binary            56748
 :num-allocs                  335300785
 :num-checks                  1
 :propagations                7096738
 :restarts                    73
 :rlimit-count                25513952
 :time                        27.86
 :total-time                  28.28)
